1031, 0, 0, 92, 2
1032, 0, 1, 55, 4
1033, 0, 2, 95, 0
1034, 0, 3, 97, 1
1035, 0, 4, 51, 3
1036, 1, 0, 58, 0
1037, 1, 1, 62, 3
1038, 1, 2, 59, 1
1039, 1, 3, 65, 2
1040, 1, 4, 51, 4
1041, 2, 0, 47, 1
1042, 2, 1, 83, 3
1043, 2, 2, 70, 0
1044, 2, 3, 56, 4
1045, 2, 4, 96, 2
1046, 3, 0, 42, 4
1047, 3, 1, 32, 0
1048, 3, 2, 53, 2
1049, 3, 3, 80, 3
1050, 3, 4, 40, 1
